90 4005
1 2 83
1 3 230
1 4 40
1 5 31
1 6 237
1 7 39
1 8 90
1 9 153
1 10 6
1 11 12
1 12 49
1 13 194
1 14 197
1 15 192
1 16 12
1 17 21
1 18 48
1 19 79
1 20 57
1 21 187
1 22 39
1 23 36
1 24 65
1 25 171
1 26 15
1 27 214
1 28 103
1 29 211
1 30 186
1 31 118
1 32 25
1 33 194
1 34 125
1 35 35
1 36 56
1 37 269
1 38 22
1 39 166
1 40 31
1 41 0
1 42 6
1 43 32
1 44 32
1 45 142
1 46 31
1 47 78
1 48 70
1 49 249
1 50 244
1 51 202
1 52 71
1 53 247
1 54 6
1 55 68
1 56 150
1 57 136
1 58 160
1 59 11
1 60 1
1 61 41
1 62 244
1 63 37
1 64 253
1 65 250
1 66 160
1 67 181
1 68 106
1 69 42
1 70 166
1 71 4
1 72 93
1 73 32
1 74 223
1 75 162
1 76 256
1 77 219
1 78 228
1 79 224
1 80 206
1 81 229
1 82 249
1 83 7
1 84 260
1 85 265
1 86 56
1 87 111
1 88 171
1 89 62
1 90 241
2 3 198
2 4 31
2 5 130
2 6 256
2 7 15
2 8 15
2 9 170
2 10 104
2 11 89
2 12 129
2 13 78
2 14 53
2 15 80
2 16 191
2 17 230
2 18 87
2 19 255
2 20 70
2 21 187
2 22 23
2 23 85
2 24 234
2 25 247
2 26 227
2 27 159
2 28 246
2 29 259
2 30 49
2 31 247
2 32 126
2 33 9
2 34 149
2 35 245
2 36 241
2 37 102
2 38 11
2 39 68
2 40 235
2 41 80
2 42 220
2 43 157
2 44 242
2 45 199
2 46 20
2 47 255
2 48 17
2 49 6
2 50 121
2 51 164
2 52 153
2 53 170
2 54 180
2 55 128
2 56 9
2 57 102
2 58 152
2 59 109
2 60 4
2 61 247
2 62 130
2 63 212
2 64 113
2 65 1
2 66 169
2 67 116
2 68 54
2 69 205
2 70 240
2 71 98
2 72 253
2 73 3
2 74 35
2 75 76
2 76 116
2 77 81
2 78 212
2 79 180
2 80 96
2 81 60
2 82 237
2 83 67
2 84 99
2 85 141
2 86 248
2 87 163
2 88 262
2 89 41
2 90 120
3 4 216
3 5 252
3 6 55
3 7 186
3 8 81
3 9 105
3 10 154
3 11 20
3 12 200
3 13 137
3 14 223
3 15 67
3 16 144
3 17 239
3 18 42
3 19 215
3 20 92
3 21 49
3 22 109
3 23 261
3 24 3
3 25 132
3 26 237
3 27 72
3 28 208
3 29 147
3 30 136
3 31 214
3 32 134
3 33 199
3 34 111
3 35 118
3 36 68
3 37 83
3 38 128
3 39 28
3 40 162
3 41 266
3 42 205
3 43 65
3 44 81
3 45 47
3 46 267
3 47 68
3 48 40
3 49 221
3 50 261
3 51 84
3 52 75
3 53 224
3 54 189
3 55 42
3 56 81
3 57 44
3 58 90
3 59 101
3 60 169
3 61 243
3 62 221
3 63 58
3 64 30
3 65 77
3 66 209
3 67 212
3 68 174
3 69 247
3 70 75
3 71 10
3 72 104
3 73 39
3 74 79
3 75 164
3 76 95
3 77 173
3 78 8
3 79 171
3 80 208
3 81 177
3 82 35
3 83 107
3 84 95
3 85 43
3 86 28
3 87 97
3 88 188
3 89 12
3 90 116
4 5 31
4 6 141
4 7 2
4 8 92
4 9 5
4 10 193
4 11 227
4 12 2
4 13 182
4 14 252
4 15 169
4 16 43
4 17 116
4 18 231
4 19 121
4 20 193
4 21 137
4 22 9
4 23 240
4 24 168
4 25 100
4 26 217
4 27 214
4 28 110
4 29 33
4 30 3
4 31 214
4 32 160
4 33 149
4 34 106
4 35 237
4 36 38
4 37 218
4 38 269
4 39 189
4 40 269
4 41 78
4 42 258
4 43 210
4 44 18
4 45 150
4 46 247
4 47 57
4 48 223
4 49 238
4 50 123
4 51 122
4 52 191
4 53 144
4 54 225
4 55 77
4 56 250
4 57 102
4 58 129
4 59 119
4 60 28
4 61 35
4 62 182
4 63 193
4 64 88
4 65 249
4 66 217
4 67 156
4 68 175
4 69 245
4 70 179
4 71 125
4 72 119
4 73 170
4 74 160
4 75 11
4 76 149
4 77 199
4 78 69
4 79 27
4 80 219
4 81 94
4 82 142
4 83 233
4 84 12
4 85 42
4 86 44
4 87 20
4 88 108
4 89 34
4 90 83
5 6 168
5 7 172
5 8 88
5 9 76
5 10 42
5 11 145
5 12 186
5 13 126
5 14 215
5 15 56
5 16 20
5 17 199
5 18 1
5 19 179
5 20 181
5 21 120
5 22 44
5 23 137
5 24 205
5 25 172
5 26 265
5 27 11
5 28 116
5 29 101
5 30 61
5 31 172
5 32 254
5 33 18
5 34 37
5 35 82
5 36 267
5 37 206
5 38 75
5 39 49
5 40 87
5 41 98
5 42 17
5 43 67
5 44 36
5 45 129
5 46 111
5 47 242
5 48 33
5 49 109
5 50 36
5 51 41
5 52 97
5 53 232
5 54 72
5 55 52
5 56 221
5 57 249
5 58 258
5 59 105
5 60 177
5 61 17
5 62 175
5 63 70
5 64 61
5 65 47
5 66 113
5 67 218
5 68 190
5 69 121
5 70 266
5 71 54
5 72 185
5 73 235
5 74 219
5 75 39
5 76 89
5 77 9
5 78 126
5 79 16
5 80 12
5 81 235
5 82 49
5 83 247
5 84 164
5 85 46
5 86 180
5 87 136
5 88 222
5 89 36
5 90 4
6 7 182
6 8 111
6 9 181
6 10 159
6 11 214
6 12 168
6 13 13
6 14 70
6 15 269
6 16 160
6 17 7
6 18 105
6 19 52
6 20 220
6 21 47
6 22 217
6 23 49
6 24 192
6 25 36
6 26 235
6 27 165
6 28 32
6 29 214
6 30 30
6 31 72
6 32 132
6 33 186
6 34 6
6 35 90
6 36 221
6 37 257
6 38 209
6 39 115
6 40 11
6 41 30
6 42 62
6 43 217
6 44 48
6 45 34
6 46 129
6 47 242
6 48 7
6 49 133
6 50 58
6 51 64
6 52 124
6 53 148
6 54 123
6 55 189
6 56 57
6 57 126
6 58 187
6 59 176
6 60 124
6 61 202
6 62 136
6 63 148
6 64 97
6 65 14
6 66 177
6 67 69
6 68 72
6 69 185
6 70 68
6 71 130
6 72 113
6 73 51
6 74 183
6 75 10
6 76 69
6 77 216
6 78 140
6 79 61
6 80 133
6 81 169
6 82 261
6 83 73
6 84 155
6 85 5
6 86 7
6 87 73
6 88 245
6 89 193
6 90 168
7 8 35
7 9 130
7 10 183
7 11 191
7 12 229
7 13 109
7 14 114
7 15 91
7 16 116
7 17 39
7 18 227
7 19 232
7 20 159
7 21 94
7 22 69
7 23 251
7 24 222
7 25 66
7 26 127
7 27 90
7 28 0
7 29 88
7 30 175
7 31 124
7 32 170
7 33 193
7 34 234
7 35 191
7 36 105
7 37 31
7 38 44
7 39 160
7 40 13
7 41 104
7 42 50
7 43 89
7 44 27
7 45 4
7 46 239
7 47 136
7 48 242
7 49 1
7 50 20
7 51 17
7 52 143
7 53 79
7 54 96
7 55 191
7 56 129
7 57 13
7 58 149
7 59 246
7 60 181
7 61 55
7 62 241
7 63 27
7 64 180
7 65 109
7 66 198
7 67 143
7 68 26
7 69 215
7 70 59
7 71 123
7 72 3
7 73 74
7 74 97
7 75 178
7 76 5
7 77 140
7 78 175
7 79 61
7 80 57
7 81 146
7 82 149
7 83 176
7 84 211
7 85 136
7 86 178
7 87 45
7 88 157
7 89 182
7 90 90
8 9 134
8 10 232
8 11 265
8 12 25
8 13 163
8 14 228
8 15 211
8 16 186
8 17 91
8 18 150
8 19 249
8 20 37
8 21 193
8 22 230
8 23 79
8 24 104
8 25 251
8 26 104
8 27 75
8 28 99
8 29 249
8 30 259
8 31 71
8 32 62
8 33 19
8 34 169
8 35 193
8 36 154
8 37 216
8 38 25
8 39 176
8 40 177
8 41 210
8 42 254
8 43 115
8 44 204
8 45 167
8 46 5
8 47 21
8 48 225
8 49 81
8 50 119
8 51 19
8 52 213
8 53 161
8 54 250
8 55 6
8 56 161
8 57 42
8 58 216
8 59 230
8 60 81
8 61 66
8 62 124
8 63 31
8 64 243
8 65 86
8 66 83
8 67 182
8 68 136
8 69 171
8 70 244
8 71 242
8 72 262
8 73 10
8 74 117
8 75 245
8 76 59
8 77 236
8 78 92
8 79 199
8 80 177
8 81 180
8 82 39
8 83 12
8 84 252
8 85 144
8 86 132
8 87 198
8 88 14
8 89 24
8 90 184
9 10 190
9 11 243
9 12 14
9 13 98
9 14 13
9 15 161
9 16 1
9 17 220
9 18 35
9 19 221
9 20 13
9 21 251
9 22 77
9 23 129
9 24 53
9 25 22
9 26 89
9 27 165
9 28 114
9 29 257
9 30 29
9 31 268
9 32 29
9 33 154
9 34 165
9 35 145
9 36 142
9 37 1
9 38 6
9 39 158
9 40 127
9 41 86
9 42 58
9 43 186
9 44 171
9 45 82
9 46 52
9 47 228
9 48 1
9 49 67
9 50 185
9 51 50
9 52 41
9 53 33
9 54 28
9 55 130
9 56 15
9 57 19
9 58 229
9 59 156
9 60 72
9 61 241
9 62 83
9 63 238
9 64 147
9 65 50
9 66 94
9 67 78
9 68 65
9 69 257
9 70 12
9 71 174
9 72 193
9 73 188
9 74 143
9 75 16
9 76 79
9 77 124
9 78 230
9 79 82
9 80 54
9 81 214
9 82 171
9 83 71
9 84 195
9 85 70
9 86 37
9 87 152
9 88 109
9 89 14
9 90 202
10 11 157
10 12 203
10 13 197
10 14 154
10 15 258
10 16 204
10 17 238
10 18 80
10 19 16
10 20 3
10 21 64
10 22 266
10 23 76
10 24 187
10 25 235
10 26 102
10 27 91
10 28 193
10 29 223
10 30 128
10 31 205
10 32 209
10 33 251
10 34 163
10 35 14
10 36 134
10 37 29
10 38 267
10 39 148
10 40 209
10 41 251
10 42 33
10 43 120
10 44 166
10 45 10
10 46 100
10 47 105
10 48 28
10 49 118
10 50 5
10 51 31
10 52 54
10 53 234
10 54 147
10 55 142
10 56 202
10 57 57
10 58 95
10 59 225
10 60 82
10 61 0
10 62 167
10 63 247
10 64 10
10 65 82
10 66 255
10 67 234
10 68 23
10 69 162
10 70 53
10 71 247
10 72 208
10 73 136
10 74 102
10 75 221
10 76 45
10 77 245
10 78 143
10 79 264
10 80 153
10 81 94
10 82 28
10 83 68
10 84 188
10 85 131
10 86 130
10 87 189
10 88 181
10 89 8
10 90 69
11 12 111
11 13 10
11 14 100
11 15 193
11 16 146
11 17 70
11 18 159
11 19 70
11 20 246
11 21 165
11 22 166
11 23 193
11 24 36
11 25 138
11 26 30
11 27 196
11 28 197
11 29 250
11 30 107
11 31 70
11 32 23
11 33 72
11 34 120
11 35 3
11 36 60
11 37 49
11 38 99
11 39 248
11 40 143
11 41 49
11 42 158
11 43 156
11 44 38
11 45 195
11 46 230
11 47 113
11 48 31
11 49 78
11 50 230
11 51 269
11 52 39
11 53 144
11 54 59
11 55 7
11 56 110
11 57 255
11 58 22
11 59 226
11 60 82
11 61 127
11 62 256
11 63 42
11 64 244
11 65 130
11 66 51
11 67 155
11 68 251
11 69 57
11 70 58
11 71 112
11 72 20
11 73 192
11 74 133
11 75 207
11 76 208
11 77 70
11 78 222
11 79 83
11 80 30
11 81 52
11 82 249
11 83 185
11 84 90
11 85 47
11 86 185
11 87 51
11 88 149
11 89 7
11 90 231
12 13 20
12 14 140
12 15 242
12 16 109
12 17 226
12 18 82
12 19 118
12 20 157
12 21 252
12 22 161
12 23 52
12 24 139
12 25 31
12 26 247
12 27 106
12 28 217
12 29 76
12 30 26
12 31 76
12 32 259
12 33 127
12 34 136
12 35 14
12 36 92
12 37 13
12 38 9
12 39 253
12 40 56
12 41 175
12 42 3
12 43 89
12 44 76
12 45 182
12 46 106
12 47 233
12 48 185
12 49 215
12 50 151
12 51 239
12 52 162
12 53 223
12 54 235
12 55 45
12 56 0
12 57 235
12 58 104
12 59 9
12 60 149
12 61 124
12 62 162
12 63 37
12 64 142
12 65 116
12 66 261
12 67 16
12 68 144
12 69 99
12 70 241
12 71 247
12 72 184
12 73 133
12 74 82
12 75 180
12 76 55
12 77 243
12 78 157
12 79 175
12 80 73
12 81 226
12 82 169
12 83 212
12 84 196
12 85 71
12 86 123
12 87 21
12 88 10
12 89 246
12 90 158
13 14 116
13 15 263
13 16 112
13 17 36
13 18 145
13 19 105
13 20 164
13 21 48
13 22 50
13 23 55
13 24 52
13 25 134
13 26 173
13 27 214
13 28 86
13 29 93
13 30 212
13 31 237
13 32 138
13 33 263
13 34 216
13 35 116
13 36 27
13 37 59
13 38 60
13 39 71
13 40 224
13 41 128
13 42 171
13 43 186
13 44 179
13 45 7
13 46 267
13 47 128
13 48 68
13 49 183
13 50 48
13 51 257
13 52 247
13 53 101
13 54 127
13 55 6
13 56 140
13 57 252
13 58 189
13 59 37
13 60 190
13 61 239
13 62 184
13 63 103
13 64 124
13 65 214
13 66 246
13 67 169
13 68 11
13 69 20
13 70 226
13 71 17
13 72 194
13 73 224
13 74 94
13 75 241
13 76 122
13 77 145
13 78 90
13 79 117
13 80 152
13 81 88
13 82 226
13 83 196
13 84 33
13 85 232
13 86 217
13 87 207
13 88 203
13 89 67
13 90 49
14 15 142
14 16 204
14 17 79
14 18 210
14 19 117
14 20 257
14 21 214
14 22 249
14 23 74
14 24 13
14 25 228
14 26 133
14 27 124
14 28 7
14 29 175
14 30 113
14 31 212
14 32 173
14 33 92
14 34 4
14 35 71
14 36 141
14 37 131
14 38 16
14 39 48
14 40 121
14 41 141
14 42 124
14 43 86
14 44 73
14 45 170
14 46 82
14 47 65
14 48 216
14 49 239
14 50 147
14 51 222
14 52 43
14 53 208
14 54 139
14 55 211
14 56 65
14 57 198
14 58 22
14 59 107
14 60 30
14 61 159
14 62 140
14 63 32
14 64 139
14 65 185
14 66 204
14 67 239
14 68 124
14 69 190
14 70 86
14 71 36
14 72 112
14 73 30
14 74 3
14 75 11
14 76 198
14 77 56
14 78 254
14 79 117
14 80 62
14 81 40
14 82 177
14 83 258
14 84 77
14 85 269
14 86 121
14 87 158
14 88 21
14 89 134
14 90 220
15 16 160
15 17 263
15 18 115
15 19 96
15 20 112
15 21 118
15 22 245
15 23 14
15 24 163
15 25 241
15 26 55
15 27 61
15 28 156
15 29 162
15 30 117
15 31 35
15 32 63
15 33 29
15 34 165
15 35 120
15 36 201
15 37 6
15 38 82
15 39 109
15 40 204
15 41 66
15 42 22
15 43 47
15 44 70
15 45 29
15 46 238
15 47 185
15 48 114
15 49 131
15 50 86
15 51 210
15 52 113
15 53 110
15 54 29
15 55 22
15 56 94
15 57 117
15 58 210
15 59 262
15 60 81
15 61 194
15 62 32
15 63 65
15 64 207
15 65 261
15 66 1
15 67 161
15 68 81
15 69 207
15 70 130
15 71 29
15 72 89
15 73 168
15 74 80
15 75 112
15 76 253
15 77 228
15 78 256
15 79 119
15 80 137
15 81 131
15 82 214
15 83 55
15 84 138
15 85 81
15 86 29
15 87 240
15 88 99
15 89 0
15 90 240
16 17 250
16 18 109
16 19 229
16 20 89
16 21 231
16 22 234
16 23 92
16 24 154
16 25 257
16 26 125
16 27 218
16 28 84
16 29 177
16 30 243
16 31 57
16 32 249
16 33 257
16 34 120
16 35 50
16 36 222
16 37 54
16 38 30
16 39 243
16 40 147
16 41 183
16 42 71
16 43 187
16 44 180
16 45 140
16 46 237
16 47 183
16 48 155
16 49 45
16 50 225
16 51 131
16 52 7
16 53 222
16 54 12
16 55 104
16 56 99
16 57 74
16 58 199
16 59 55
16 60 20
16 61 257
16 62 175
16 63 188
16 64 148
16 65 168
16 66 60
16 67 118
16 68 118
16 69 194
16 70 94
16 71 126
16 72 192
16 73 200
16 74 208
16 75 148
16 76 13
16 77 180
16 78 226
16 79 42
16 80 219
16 81 112
16 82 136
16 83 246
16 84 134
16 85 207
16 86 192
16 87 51
16 88 42
16 89 249
16 90 83
17 18 204
17 19 212
17 20 68
17 21 267
17 22 83
17 23 26
17 24 179
17 25 129
17 26 159
17 27 142
17 28 129
17 29 132
17 30 14
17 31 16
17 32 42
17 33 93
17 34 84
17 35 131
17 36 19
17 37 80
17 38 255
17 39 161
17 40 118
17 41 165
17 42 160
17 43 99
17 44 125
17 45 209
17 46 63
17 47 215
17 48 83
17 49 47
17 50 199
17 51 195
17 52 191
17 53 85
17 54 264
17 55 169
17 56 254
17 57 186
17 58 34
17 59 235
17 60 14
17 61 200
17 62 150
17 63 83
17 64 191
17 65 193
17 66 58
17 67 258
17 68 134
17 69 114
17 70 34
17 71 209
17 72 95
17 73 266
17 74 150
17 75 53
17 76 227
17 77 259
17 78 104
17 79 238
17 80 125
17 81 263
17 82 114
17 83 73
17 84 129
17 85 71
17 86 215
17 87 75
17 88 77
17 89 199
17 90 97
18 19 25
18 20 209
18 21 203
18 22 230
18 23 172
18 24 179
18 25 23
18 26 13
18 27 37
18 28 265
18 29 85
18 30 149
18 31 185
18 32 6
18 33 8
18 34 172
18 35 205
18 36 215
18 37 248
18 38 132
18 39 15
18 40 108
18 41 60
18 42 127
18 43 47
18 44 153
18 45 6
18 46 149
18 47 204
18 48 122
18 49 161
18 50 78
18 51 246
18 52 88
18 53 8
18 54 116
18 55 87
18 56 115
18 57 200
18 58 27
18 59 90
18 60 238
18 61 207
18 62 21
18 63 182
18 64 8
18 65 128
18 66 155
18 67 94
18 68 75
18 69 95
18 70 105
18 71 44
18 72 109
18 73 263
18 74 73
18 75 3
18 76 62
18 77 133
18 78 93
18 79 66
18 80 252
18 81 195
18 82 176
18 83 63
18 84 12
18 85 254
18 86 245
18 87 36
18 88 194
18 89 201
18 90 21
19 20 186
19 21 151
19 22 247
19 23 227
19 24 180
19 25 253
19 26 136
19 27 167
19 28 203
19 29 5
19 30 141
19 31 154
19 32 199
19 33 209
19 34 97
19 35 164
19 36 198
19 37 197
19 38 261
19 39 246
19 40 101
19 41 13
19 42 161
19 43 67
19 44 167
19 45 69
19 46 7
19 47 148
19 48 256
19 49 75
19 50 225
19 51 90
19 52 134
19 53 84
19 54 155
19 55 199
19 56 112
19 57 196
19 58 62
19 59 218
19 60 183
19 61 199
19 62 3
19 63 152
19 64 91
19 65 200
19 66 221
19 67 21
19 68 120
19 69 90
19 70 233
19 71 83
19 72 47
19 73 215
19 74 173
19 75 255
19 76 52
19 77 163
19 78 90
19 79 35
19 80 200
19 81 121
19 82 59
19 83 194
19 84 194
19 85 189
19 86 227
19 87 53
19 88 142
19 89 135
19 90 29
20 21 40
20 22 159
20 23 151
20 24 61
20 25 140
20 26 105
20 27 181
20 28 231
20 29 24
20 30 217
20 31 86
20 32 215
20 33 75
20 34 72
20 35 55
20 36 137
20 37 201
20 38 226
20 39 88
20 40 210
20 41 59
20 42 72
20 43 33
20 44 81
20 45 110
20 46 182
20 47 237
20 48 81
20 49 261
20 50 198
20 51 269
20 52 56
20 53 43
20 54 264
20 55 27
20 56 111
20 57 163
20 58 77
20 59 173
20 60 205
20 61 57
20 62 209
20 63 33
20 64 101
20 65 267
20 66 139
20 67 110
20 68 43
20 69 59
20 70 0
20 71 116
20 72 76
20 73 40
20 74 245
20 75 85
20 76 269
20 77 9
20 78 93
20 79 261
20 80 1
20 81 184
20 82 160
20 83 156
20 84 44
20 85 48
20 86 157
20 87 193
20 88 18
20 89 42
20 90 174
21 22 172
21 23 233
21 24 226
21 25 145
21 26 15
21 27 144
21 28 190
21 29 236
21 30 23
21 31 153
21 32 44
21 33 162
21 34 86
21 35 94
21 36 62
21 37 1
21 38 125
21 39 231
21 40 108
21 41 269
21 42 269
21 43 221
21 44 268
21 45 194
21 46 63
21 47 258
21 48 104
21 49 90
21 50 40
21 51 156
21 52 129
21 53 153
21 54 230
21 55 1
21 56 220
21 57 96
21 58 170
21 59 173
21 60 197
21 61 269
21 62 133
21 63 269
21 64 51
21 65 255
21 66 223
21 67 216
21 68 253
21 69 224
21 70 76
21 71 214
21 72 166
21 73 89
21 74 120
21 75 261
21 76 253
21 77 194
21 78 142
21 79 5
21 80 245
21 81 148
21 82 237
21 83 156
21 84 124
21 85 86
21 86 94
21 87 106
21 88 217
21 89 150
21 90 235
22 23 156
22 24 216
22 25 125
22 26 97
22 27 146
22 28 223
22 29 253
22 30 216
22 31 127
22 32 185
22 33 96
22 34 150
22 35 134
22 36 168
22 37 104
22 38 161
22 39 160
22 40 57
22 41 59
22 42 42
22 43 229
22 44 129
22 45 90
22 46 109
22 47 107
22 48 59
22 49 82
22 50 252
22 51 153
22 52 146
22 53 45
22 54 38
22 55 214
22 56 169
22 57 144
22 58 101
22 59 16
22 60 60
22 61 17
22 62 79
22 63 196
22 64 233
22 65 213
22 66 254
22 67 124
22 68 47
22 69 15
22 70 223
22 71 71
22 72 165
22 73 79
22 74 139
22 75 246
22 76 159
22 77 64
22 78 257
22 79 155
22 80 77
22 81 74
22 82 235
22 83 161
22 84 85
22 85 232
22 86 266
22 87 228
22 88 66
22 89 176
22 90 111
23 24 212
23 25 230
23 26 47
23 27 161
23 28 84
23 29 31
23 30 124
23 31 99
23 32 205
23 33 83
23 34 36
23 35 146
23 36 83
23 37 56
23 38 108
23 39 17
23 40 90
23 41 195
23 42 142
23 43 10
23 44 36
23 45 260
23 46 220
23 47 232
23 48 197
23 49 243
23 50 264
23 51 24
23 52 35
23 53 162
23 54 159
23 55 98
23 56 43
23 57 240
23 58 16
23 59 122
23 60 259
23 61 168
23 62 35
23 63 167
23 64 178
23 65 220
23 66 79
23 67 121
23 68 191
23 69 231
23 70 15
23 71 48
23 72 128
23 73 131
23 74 97
23 75 98
23 76 12
23 77 209
23 78 187
23 79 201
23 80 189
23 81 221
23 82 247
23 83 105
23 84 119
23 85 204
23 86 106
23 87 132
23 88 181
23 89 119
23 90 21
24 25 5
24 26 161
24 27 56
24 28 99
24 29 259
24 30 80
24 31 21
24 32 15
24 33 217
24 34 47
24 35 256
24 36 190
24 37 236
24 38 47
24 39 243
24 40 237
24 41 165
24 42 160
24 43 90
24 44 116
24 45 161
24 46 175
24 47 261
24 48 218
24 49 250
24 50 71
24 51 237
24 52 248
24 53 126
24 54 177
24 55 71
24 56 178
24 57 116
24 58 185
24 59 209
24 60 245
24 61 76
24 62 117
24 63 113
24 64 0
24 65 1
24 66 158
24 67 18
24 68 246
24 69 251
24 70 97
24 71 9
24 72 250
24 73 224
24 74 234
24 75 195
24 76 223
24 77 16
24 78 0
24 79 148
24 80 56
24 81 48
24 82 64
24 83 252
24 84 237
24 85 223
24 86 116
24 87 147
24 88 179
24 89 57
24 90 16
25 26 193
25 27 124
25 28 233
25 29 47
25 30 239
25 31 68
25 32 126
25 33 233
25 34 247
25 35 156
25 36 21
25 37 159
25 38 60
25 39 172
25 40 78
25 41 227
25 42 1
25 43 249
25 44 151
25 45 126
25 46 32
25 47 218
25 48 262
25 49 91
25 50 254
25 51 78
25 52 220
25 53 237
25 54 93
25 55 1
25 56 127
25 57 240
25 58 182
25 59 80
25 60 210
25 61 239
25 62 171
25 63 180
25 64 236
25 65 110
25 66 112
25 67 57
25 68 75
25 69 161
25 70 264
25 71 69
25 72 97
25 73 218
25 74 140
25 75 196
25 76 208
25 77 146
25 78 154
25 79 117
25 80 61
25 81 129
25 82 213
25 83 149
25 84 246
25 85 71
25 86 73
25 87 254
25 88 93
25 89 254
25 90 135
26 27 35
26 28 157
26 29 81
26 30 52
26 31 37
26 32 211
26 33 82
26 34 239
26 35 223
26 36 4
26 37 8
26 38 77
26 39 103
26 40 150
26 41 43
26 42 32
26 43 61
26 44 148
26 45 24
26 46 83
26 47 98
26 48 57
26 49 0
26 50 268
26 51 129
26 52 64
26 53 263
26 54 42
26 55 53
26 56 43
26 57 206
26 58 90
26 59 53
26 60 117
26 61 190
26 62 156
26 63 192
26 64 231
26 65 237
26 66 238
26 67 250
26 68 125
26 69 33
26 70 33
26 71 101
26 72 153
26 73 214
26 74 37
26 75 84
26 76 28
26 77 136
26 78 178
26 79 241
26 80 2
26 81 212
26 82 106
26 83 16
26 84 168
26 85 25
26 86 254
26 87 226
26 88 9
26 89 250
26 90 78
27 28 179
27 29 184
27 30 105
27 31 58
27 32 174
27 33 133
27 34 136
27 35 75
27 36 148
27 37 243
27 38 93
27 39 207
27 40 240
27 41 147
27 42 113
27 43 72
27 44 93
27 45 195
27 46 28
27 47 71
27 48 192
27 49 94
27 50 14
27 51 118
27 52 19
27 53 106
27 54 8
27 55 51
27 56 172
27 57 25
27 58 18
27 59 213
27 60 86
27 61 188
27 62 258
27 63 169
27 64 64
27 65 233
27 66 249
27 67 231
27 68 25
27 69 65
27 70 264
27 71 215
27 72 158
27 73 184
27 74 226
27 75 263
27 76 89
27 77 56
27 78 50
27 79 135
27 80 39
27 81 85
27 82 7
27 83 18
27 84 18
27 85 57
27 86 104
27 87 247
27 88 129
27 89 167
27 90 162
28 29 198
28 30 184
28 31 143
28 32 129
28 33 189
28 34 73
28 35 135
28 36 82
28 37 132
28 38 161
28 39 79
28 40 225
28 41 163
28 42 2
28 43 56
28 44 102
28 45 8
28 46 180
28 47 260
28 48 85
28 49 34
28 50 184
28 51 73
28 52 161
28 53 59
28 54 171
28 55 89
28 56 204
28 57 134
28 58 122
28 59 78
28 60 139
28 61 83
28 62 71
28 63 122
28 64 102
28 65 252
28 66 85
28 67 166
28 68 223
28 69 247
28 70 33
28 71 236
28 72 137
28 73 97
28 74 143
28 75 258
28 76 252
28 77 209
28 78 49
28 79 231
28 80 175
28 81 224
28 82 16
28 83 15
28 84 223
28 85 42
28 86 146
28 87 180
28 88 242
28 89 110
28 90 181
29 30 130
29 31 50
29 32 82
29 33 227
29 34 181
29 35 95
29 36 75
29 37 179
29 38 9
29 39 1
29 40 221
29 41 191
29 42 223
29 43 42
29 44 58
29 45 196
29 46 169
29 47 168
29 48 243
29 49 263
29 50 62
29 51 233
29 52 60
29 53 79
29 54 156
29 55 136
29 56 164
29 57 182
29 58 149
29 59 189
29 60 31
29 61 118
29 62 261
29 63 235
29 64 240
29 65 109
29 66 255
29 67 251
29 68 204
29 69 65
29 70 32
29 71 54
29 72 230
29 73 94
29 74 150
29 75 22
29 76 2
29 77 107
29 78 147
29 79 250
29 80 164
29 81 241
29 82 11
29 83 202
29 84 72
29 85 104
29 86 155
29 87 258
29 88 208
29 89 89
29 90 129
30 31 256
30 32 34
30 33 54
30 34 214
30 35 247
30 36 161
30 37 149
30 38 3
30 39 249
30 40 216
30 41 73
30 42 109
30 43 109
30 44 39
30 45 269
30 46 104
30 47 106
30 48 48
30 49 26
30 50 43
30 51 182
30 52 179
30 53 95
30 54 201
30 55 246
30 56 237
30 57 12
30 58 93
30 59 181
30 60 142
30 61 230
30 62 55
30 63 22
30 64 255
30 65 231
30 66 196
30 67 169
30 68 130
30 69 133
30 70 32
30 71 171
30 72 196
30 73 67
30 74 94
30 75 130
30 76 65
30 77 54
30 78 197
30 79 249
30 80 87
30 81 187
30 82 113
30 83 252
30 84 139
30 85 94
30 86 148
30 87 25
30 88 21
30 89 50
30 90 135
31 32 227
31 33 56
31 34 30
31 35 192
31 36 145
31 37 111
31 38 36
31 39 178
31 40 235
31 41 98
31 42 59
31 43 266
31 44 253
31 45 94
31 46 67
31 47 72
31 48 38
31 49 71
31 50 188
31 51 134
31 52 46
31 53 83
31 54 84
31 55 74
31 56 194
31 57 100
31 58 35
31 59 209
31 60 5
31 61 187
31 62 226
31 63 203
31 64 201
31 65 122
31 66 137
31 67 132
31 68 207
31 69 227
31 70 190
31 71 151
31 72 177
31 73 140
31 74 138
31 75 85
31 76 257
31 77 229
31 78 138
31 79 58
31 80 155
31 81 256
31 82 140
31 83 253
31 84 39
31 85 194
31 86 232
31 87 81
31 88 65
31 89 124
31 90 42
32 33 131
32 34 71
32 35 28
32 36 28
32 37 126
32 38 67
32 39 135
32 40 170
32 41 248
32 42 74
32 43 66
32 44 179
32 45 190
32 46 215
32 47 74
32 48 50
32 49 166
32 50 35
32 51 83
32 52 263
32 53 206
32 54 65
32 55 51
32 56 212
32 57 253
32 58 218
32 59 136
32 60 256
32 61 246
32 62 156
32 63 68
32 64 248
32 65 73
32 66 140
32 67 264
32 68 230
32 69 146
32 70 169
32 71 187
32 72 192
32 73 125
32 74 115
32 75 68
32 76 268
32 77 16
32 78 6
32 79 267
32 80 39
32 81 152
32 82 81
32 83 161
32 84 48
32 85 64
32 86 88
32 87 26
32 88 243
32 89 28
32 90 220
33 34 55
33 35 62
33 36 211
33 37 150
33 38 61
33 39 133
33 40 237
33 41 225
33 42 116
33 43 7
33 44 60
33 45 120
33 46 0
33 47 204
33 48 38
33 49 210
33 50 63
33 51 150
33 52 208
33 53 189
33 54 104
33 55 238
33 56 143
33 57 70
33 58 211
33 59 165
33 60 83
33 61 100
33 62 160
33 63 184
33 64 252
33 65 50
33 66 234
33 67 20
33 68 58
33 69 30
33 70 112
33 71 1
33 72 79
33 73 197
33 74 37
33 75 36
33 76 84
33 77 117
33 78 57
33 79 125
33 80 17
33 81 7
33 82 268
33 83 87
33 84 116
33 85 214
33 86 246
33 87 61
33 88 91
33 89 158
33 90 107
34 35 70
34 36 100
34 37 221
34 38 32
34 39 81
34 40 29
34 41 225
34 42 175
34 43 149
34 44 95
34 45 218
34 46 30
34 47 167
34 48 242
34 49 56
34 50 124
34 51 85
34 52 71
34 53 16
34 54 26
34 55 38
34 56 158
34 57 55
34 58 208
34 59 111
34 60 250
34 61 42
34 62 141
34 63 216
34 64 210
34 65 31
34 66 204
34 67 33
34 68 149
34 69 26
34 70 254
34 71 95
34 72 238
34 73 25
34 74 215
34 75 209
34 76 94
34 77 144
34 78 71
34 79 229
34 80 179
34 81 263
34 82 45
34 83 179
34 84 154
34 85 16
34 86 6
34 87 197
34 88 151
34 89 37
34 90 75
35 36 86
35 37 48
35 38 141
35 39 156
35 40 140
35 41 206
35 42 65
35 43 193
35 44 59
35 45 164
35 46 20
35 47 192
35 48 178
35 49 62
35 50 54
35 51 144
35 52 64
35 53 144
35 54 225
35 55 248
35 56 55
35 57 62
35 58 215
35 59 30
35 60 121
35 61 106
35 62 95
35 63 5
35 64 36
35 65 228
35 66 210
35 67 102
35 68 23
35 69 64
35 70 165
35 71 41
35 72 70
35 73 241
35 74 119
35 75 138
35 76 0
35 77 215
35 78 198
35 79 91
35 80 3
35 81 256
35 82 17
35 83 211
35 84 205
35 85 113
35 86 144
35 87 197
35 88 175
35 89 267
35 90 77
36 37 217
36 38 211
36 39 232
36 40 18
36 41 102
36 42 49
36 43 54
36 44 45
36 45 217
36 46 45
36 47 22
36 48 244
36 49 241
36 50 252
36 51 250
36 52 229
36 53 134
36 54 30
36 55 27
36 56 131
36 57 75
36 58 84
36 59 82
36 60 246
36 61 43
36 62 160
36 63 99
36 64 191
36 65 178
36 66 65
36 67 38
36 68 90
36 69 61
36 70 20
36 71 136
36 72 19
36 73 55
36 74 256
36 75 61
36 76 76
36 77 165
36 78 83
36 79 154
36 80 67
36 81 39
36 82 171
36 83 238
36 84 104
36 85 108
36 86 247
36 87 73
36 88 199
36 89 252
36 90 14
37 38 162
37 39 167
37 40 149
37 41 11
37 42 186
37 43 137
37 44 129
37 45 127
37 46 145
37 47 265
37 48 111
37 49 196
37 50 108
37 51 48
37 52 121
37 53 84
37 54 235
37 55 32
37 56 90
37 57 137
37 58 135
37 59 90
37 60 16
37 61 9
37 62 159
37 63 267
37 64 45
37 65 223
37 66 108
37 67 139
37 68 243
37 69 76
37 70 249
37 71 156
37 72 205
37 73 74
37 74 68
37 75 45
37 76 230
37 77 169
37 78 143
37 79 41
37 80 54
37 81 121
37 82 113
37 83 192
37 84 118
37 85 17
37 86 14
37 87 194
37 88 266
37 89 128
37 90 223
38 39 218
38 40 12
38 41 85
38 42 129
38 43 31
38 44 129
38 45 37
38 46 40
38 47 61
38 48 220
38 49 59
38 50 134
38 51 160
38 52 201
38 53 53
38 54 257
38 55 25
38 56 71
38 57 67
38 58 15
38 59 63
38 60 40
38 61 206
38 62 112
38 63 185
38 64 212
38 65 164
38 66 125
38 67 163
38 68 241
38 69 70
38 70 186
38 71 206
38 72 121
38 73 76
38 74 241
38 75 3
38 76 42
38 77 182
38 78 266
38 79 198
38 80 235
38 81 58
38 82 67
38 83 90
38 84 85
38 85 107
38 86 132
38 87 257
38 88 164
38 89 199
38 90 85
39 40 40
39 41 218
39 42 156
39 43 69
39 44 170
39 45 226
39 46 259
39 47 172
39 48 102
39 49 81
39 50 138
39 51 87
39 52 226
39 53 151
39 54 10
39 55 120
39 56 166
39 57 265
39 58 171
39 59 164
39 60 83
39 61 86
39 62 39
39 63 108
39 64 83
39 65 189
39 66 246
39 67 200
39 68 201
39 69 195
39 70 91
39 71 98
39 72 163
39 73 57
39 74 27
39 75 184
39 76 135
39 77 204
39 78 121
39 79 19
39 80 185
39 81 62
39 82 195
39 83 74
39 84 3
39 85 167
39 86 101
39 87 259
39 88 150
39 89 266
39 90 191
40 41 172
40 42 73
40 43 212
40 44 166
40 45 224
40 46 4
40 47 224
40 48 27
40 49 76
40 50 199
40 51 201
40 52 9
40 53 179
40 54 14
40 55 86
40 56 217
40 57 54
40 58 241
40 59 264
40 60 204
40 61 58
40 62 132
40 63 131
40 64 149
40 65 8
40 66 128
40 67 243
40 68 207
40 69 132
40 70 209
40 71 96
40 72 134
40 73 132
40 74 189
40 75 72
40 76 10
40 77 98
40 78 256
40 79 0
40 80 132
40 81 67
40 82 195
40 83 118
40 84 170
40 85 71
40 86 231
40 87 53
40 88 265
40 89 140
40 90 236
41 42 180
41 43 70
41 44 55
41 45 226
41 46 10
41 47 77
41 48 55
41 49 80
41 50 103
41 51 135
41 52 236
41 53 62
41 54 169
41 55 35
41 56 71
41 57 102
41 58 206
41 59 186
41 60 43
41 61 255
41 62 249
41 63 240
41 64 103
41 65 129
41 66 76
41 67 252
41 68 128
41 69 221
41 70 127
41 71 256
41 72 183
41 73 74
41 74 37
41 75 166
41 76 107
41 77 34
41 78 220
41 79 140
41 80 253
41 81 19
41 82 225
41 83 162
41 84 267
41 85 59
41 86 232
41 87 237
41 88 167
41 89 19
41 90 267
42 43 151
42 44 163
42 45 158
42 46 195
42 47 244
42 48 221
42 49 212
42 50 185
42 51 182
42 52 164
42 53 254
42 54 111
42 55 141
42 56 147
42 57 110
42 58 13
42 59 245
42 60 208
42 61 80
42 62 82
42 63 209
42 64 259
42 65 20
42 66 2
42 67 19
42 68 222
42 69 26
42 70 252
42 71 188
42 72 131
42 73 13
42 74 199
42 75 40
42 76 183
42 77 229
42 78 230
42 79 245
42 80 187
42 81 151
42 82 132
42 83 140
42 84 138
42 85 50
42 86 24
42 87 225
42 88 57
42 89 140
42 90 116
43 44 41
43 45 239
43 46 147
43 47 181
43 48 192
43 49 72
43 50 185
43 51 40
43 52 178
43 53 48
43 54 36
43 55 120
43 56 123
43 57 147
43 58 254
43 59 101
43 60 179
43 61 180
43 62 106
43 63 203
43 64 243
43 65 236
43 66 25
43 67 41
43 68 172
43 69 187
43 70 44
43 71 191
43 72 4
43 73 240
43 74 269
43 75 6
43 76 51
43 77 132
43 78 210
43 79 43
43 80 104
43 81 164
43 82 260
43 83 68
43 84 99
43 85 251
43 86 132
43 87 108
43 88 132
43 89 132
43 90 13
44 45 214
44 46 259
44 47 176
44 48 213
44 49 153
44 50 224
44 51 248
44 52 245
44 53 95
44 54 151
44 55 181
44 56 201
44 57 225
44 58 27
44 59 188
44 60 17
44 61 1
44 62 136
44 63 133
44 64 167
44 65 263
44 66 51
44 67 220
44 68 7
44 69 143
44 70 261
44 71 237
44 72 57
44 73 64
44 74 255
44 75 101
44 76 227
44 77 222
44 78 211
44 79 164
44 80 76
44 81 195
44 82 189
44 83 123
44 84 154
44 85 74
44 86 139
44 87 240
44 88 83
44 89 194
44 90 48
45 46 2
45 47 154
45 48 83
45 49 111
45 50 135
45 51 261
45 52 240
45 53 116
45 54 186
45 55 269
45 56 180
45 57 97
45 58 213
45 59 31
45 60 213
45 61 103
45 62 60
45 63 122
45 64 156
45 65 220
45 66 241
45 67 12
45 68 179
45 69 45
45 70 20
45 71 171
45 72 138
45 73 46
45 74 249
45 75 242
45 76 263
45 77 79
45 78 110
45 79 125
45 80 99
45 81 135
45 82 261
45 83 242
45 84 237
45 85 65
45 86 170
45 87 193
45 88 215
45 89 79
45 90 210
46 47 34
46 48 20
46 49 94
46 50 152
46 51 235
46 52 90
46 53 184
46 54 245
46 55 267
46 56 24
46 57 43
46 58 115
46 59 20
46 60 76
46 61 74
46 62 208
46 63 8
46 64 76
46 65 5
46 66 15
46 67 235
46 68 140
46 69 196
46 70 24
46 71 81
46 72 44
46 73 85
46 74 6
46 75 162
46 76 197
46 77 35
46 78 76
46 79 165
46 80 162
46 81 248
46 82 266
46 83 254
46 84 182
46 85 21
46 86 110
46 87 146
46 88 79
46 89 141
46 90 208
47 48 126
47 49 32
47 50 138
47 51 128
47 52 29
47 53 186
47 54 48
47 55 267
47 56 247
47 57 160
47 58 56
47 59 84
47 60 232
47 61 204
47 62 136
47 63 156
47 64 193
47 65 41
47 66 150
47 67 81
47 68 237
47 69 150
47 70 43
47 71 255
47 72 51
47 73 50
47 74 177
47 75 78
47 76 158
47 77 75
47 78 186
47 79 41
47 80 110
47 81 81
47 82 13
47 83 161
47 84 4
47 85 264
47 86 120
47 87 98
47 88 235
47 89 83
47 90 29
48 49 81
48 50 229
48 51 263
48 52 214
48 53 240
48 54 200
48 55 65
48 56 122
48 57 45
48 58 204
48 59 173
48 60 269
48 61 1
48 62 155
48 63 76
48 64 267
48 65 178
48 66 86
48 67 130
48 68 140
48 69 227
48 70 208
48 71 7
48 72 207
48 73 154
48 74 66
48 75 20
48 76 64
48 77 81
48 78 224
48 79 223
48 80 51
48 81 185
48 82 134
48 83 143
48 84 211
48 85 163
48 86 181
48 87 161
48 88 39
48 89 269
48 90 131
49 50 254
49 51 100
49 52 269
49 53 71
49 54 240
49 55 255
49 56 265
49 57 88
49 58 262
49 59 102
49 60 134
49 61 200
49 62 23
49 63 202
49 64 27
49 65 117
49 66 108
49 67 114
49 68 148
49 69 245
49 70 0
49 71 233
49 72 138
49 73 228
49 74 92
49 75 250
49 76 83
49 77 265
49 78 183
49 79 93
49 80 235
49 81 161
49 82 60
49 83 178
49 84 226
49 85 19
49 86 245
49 87 73
49 88 255
49 89 199
49 90 159
50 51 231
50 52 134
50 53 144
50 54 167
50 55 29
50 56 35
50 57 1
50 58 156
50 59 35
50 60 46
50 61 193
50 62 252
50 63 138
50 64 238
50 65 82
50 66 232
50 67 180
50 68 152
50 69 9
50 70 196
50 71 268
50 72 24
50 73 168
50 74 77
50 75 177
50 76 117
50 77 169
50 78 262
50 79 116
50 80 187
50 81 208
50 82 167
50 83 11
50 84 183
50 85 253
50 86 261
50 87 42
50 88 181
50 89 240
50 90 268
51 52 22
51 53 197
51 54 231
51 55 158
51 56 208
51 57 205
51 58 224
51 59 25
51 60 261
51 61 86
51 62 5
51 63 67
51 64 195
51 65 234
51 66 49
51 67 205
51 68 35
51 69 176
51 70 39
51 71 40
51 72 191
51 73 71
51 74 101
51 75 34
51 76 167
51 77 0
51 78 31
51 79 204
51 80 148
51 81 246
51 82 212
51 83 201
51 84 109
51 85 225
51 86 266
51 87 154
51 88 51
51 89 49
51 90 112
52 53 228
52 54 146
52 55 246
52 56 105
52 57 182
52 58 124
52 59 198
52 60 233
52 61 76
52 62 234
52 63 248
52 64 194
52 65 263
52 66 14
52 67 207
52 68 231
52 69 78
52 70 229
52 71 213
52 72 255
52 73 42
52 74 31
52 75 160
52 76 47
52 77 196
52 78 102
52 79 84
52 80 263
52 81 66
52 82 95
52 83 142
52 84 0
52 85 116
52 86 243
52 87 155
52 88 123
52 89 217
52 90 159
53 54 172
53 55 225
53 56 102
53 57 20
53 58 76
53 59 206
53 60 62
53 61 36
53 62 123
53 63 36
53 64 234
53 65 42
53 66 237
53 67 196
53 68 42
53 69 110
53 70 109
53 71 162
53 72 57
53 73 10
53 74 124
53 75 252
53 76 107
53 77 16
53 78 10
53 79 53
53 80 183
53 81 16
53 82 107
53 83 79
53 84 149
53 85 141
53 86 110
53 87 196
53 88 95
53 89 93
53 90 100
54 55 41
54 56 260
54 57 262
54 58 103
54 59 244
54 60 198
54 61 87
54 62 141
54 63 11
54 64 205
54 65 132
54 66 118
54 67 133
54 68 62
54 69 241
54 70 82
54 71 30
54 72 196
54 73 44
54 74 134
54 75 207
54 76 84
54 77 106
54 78 39
54 79 18
54 80 40
54 81 213
54 82 219
54 83 214
54 84 0
54 85 21
54 86 82
54 87 127
54 88 9
54 89 86
54 90 250
55 56 169
55 57 66
55 58 43
55 59 124
55 60 254
55 61 261
55 62 206
55 63 223
55 64 182
55 65 244
55 66 264
55 67 154
55 68 126
55 69 169
55 70 36
55 71 158
55 72 203
55 73 235
55 74 245
55 75 237
55 76 17
55 77 55
55 78 107
55 79 119
55 80 146
55 81 147
55 82 194
55 83 47
55 84 152
55 85 217
55 86 195
55 87 128
55 88 77
55 89 192
55 90 143
56 57 5
56 58 155
56 59 80
56 60 256
56 61 205
56 62 165
56 63 256
56 64 250
56 65 3
56 66 159
56 67 38
56 68 59
56 69 261
56 70 93
56 71 260
56 72 191
56 73 228
56 74 214
56 75 0
56 76 69
56 77 109
56 78 184
56 79 46
56 80 85
56 81 193
56 82 133
56 83 182
56 84 13
56 85 119
56 86 149
56 87 27
56 88 234
56 89 176
56 90 87
57 58 118
57 59 227
57 60 251
57 61 26
57 62 50
57 63 182
57 64 198
57 65 179
57 66 216
57 67 45
57 68 68
57 69 156
57 70 207
57 71 108
57 72 157
57 73 240
57 74 269
57 75 51
57 76 49
57 77 55
57 78 175
57 79 154
57 80 152
57 81 171
57 82 143
57 83 68
57 84 118
57 85 222
57 86 70
57 87 244
57 88 256
57 89 72
57 90 21
58 59 31
58 60 21
58 61 167
58 62 255
58 63 135
58 64 259
58 65 49
58 66 79
58 67 179
58 68 187
58 69 39
58 70 266
58 71 262
58 72 76
58 73 73
58 74 205
58 75 142
58 76 192
58 77 37
58 78 251
58 79 6
58 80 27
58 81 190
58 82 255
58 83 98
58 84 124
58 85 94
58 86 178
58 87 187
58 88 231
58 89 69
58 90 26
59 60 250
59 61 75
59 62 104
59 63 83
59 64 231
59 65 62
59 66 127
59 67 88
59 68 207
59 69 19
59 70 194
59 71 163
59 72 233
59 73 77
59 74 162
59 75 45
59 76 220
59 77 161
59 78 173
59 79 22
59 80 4
59 81 125
59 82 207
59 83 10
59 84 15
59 85 236
59 86 92
59 87 161
59 88 90
59 89 105
59 90 33
60 61 236
60 62 36
60 63 183
60 64 104
60 65 189
60 66 102
60 67 20
60 68 265
60 69 25
60 70 141
60 71 5
60 72 1
60 73 262
60 74 201
60 75 145
60 76 193
60 77 77
60 78 116
60 79 192
60 80 67
60 81 195
60 82 228
60 83 136
60 84 33
60 85 110
60 86 40
60 87 176
60 88 95
60 89 203
60 90 53
61 62 268
61 63 170
61 64 135
61 65 121
61 66 6
61 67 215
61 68 86
61 69 258
61 70 78
61 71 260
61 72 144
61 73 227
61 74 52
61 75 250
61 76 127
61 77 115
61 78 159
61 79 113
61 80 124
61 81 245
61 82 253
61 83 183
61 84 10
61 85 141
61 86 121
61 87 229
61 88 78
61 89 267
61 90 135
62 63 207
62 64 166
62 65 88
62 66 214
62 67 87
62 68 134
62 69 46
62 70 139
62 71 67
62 72 206
62 73 116
62 74 187
62 75 21
62 76 242
62 77 90
62 78 171
62 79 87
62 80 256
62 81 265
62 82 257
62 83 91
62 84 103
62 85 132
62 86 200
62 87 176
62 88 245
62 89 251
62 90 145
63 64 17
63 65 120
63 66 18
63 67 138
63 68 27
63 69 160
63 70 213
63 71 94
63 72 254
63 73 227
63 74 41
63 75 126
63 76 20
63 77 70
63 78 71
63 79 15
63 80 208
63 81 261
63 82 19
63 83 236
63 84 198
63 85 64
63 86 113
63 87 35
63 88 15
63 89 206
63 90 211
64 65 102
64 66 21
64 67 49
64 68 266
64 69 194
64 70 215
64 71 259
64 72 211
64 73 245
64 74 264
64 75 130
64 76 13
64 77 172
64 78 223
64 79 37
64 80 168
64 81 231
64 82 259
64 83 114
64 84 150
64 85 100
64 86 165
64 87 141
64 88 126
64 89 209
64 90 4
65 66 246
65 67 73
65 68 144
65 69 257
65 70 135
65 71 137
65 72 140
65 73 229
65 74 71
65 75 56
65 76 225
65 77 85
65 78 107
65 79 30
65 80 183
65 81 234
65 82 220
65 83 242
65 84 172
65 85 164
65 86 192
65 87 83
65 88 90
65 89 130
65 90 68
66 67 67
66 68 241
66 69 32
66 70 82
66 71 14
66 72 263
66 73 70
66 74 197
66 75 14
66 76 65
66 77 226
66 78 25
66 79 172
66 80 171
66 81 198
66 82 102
66 83 52
66 84 123
66 85 211
66 86 85
66 87 82
66 88 243
66 89 236
66 90 21
67 68 107
67 69 124
67 70 212
67 71 219
67 72 165
67 73 129
67 74 170
67 75 175
67 76 213
67 77 28
67 78 109
67 79 82
67 80 241
67 81 112
67 82 160
67 83 98
67 84 168
67 85 53
67 86 107
67 87 184
67 88 50
67 89 78
67 90 155
68 69 225
68 70 126
68 71 173
68 72 247
68 73 247
68 74 83
68 75 52
68 76 139
68 77 4
68 78 101
68 79 261
68 80 175
68 81 154
68 82 158
68 83 152
68 84 255
68 85 245
68 86 185
68 87 229
68 88 19
68 89 269
68 90 259
69 70 127
69 71 220
69 72 248
69 73 43
69 74 3
69 75 143
69 76 19
69 77 247
69 78 87
69 79 57
69 80 56
69 81 209
69 82 267
69 83 13
69 84 103
69 85 11
69 86 158
69 87 55
69 88 75
69 89 74
69 90 104
70 71 234
70 72 9
70 73 161
70 74 1
70 75 265
70 76 257
70 77 63
70 78 150
70 79 104
70 80 15
70 81 228
70 82 258
70 83 222
70 84 144
70 85 207
70 86 176
70 87 191
70 88 70
70 89 87
70 90 100
71 72 241
71 73 70
71 74 89
71 75 220
71 76 235
71 77 146
71 78 164
71 79 220
71 80 82
71 81 79
71 82 215
71 83 147
71 84 71
71 85 173
71 86 7
71 87 199
71 88 94
71 89 18
71 90 129
72 73 251
72 74 240
72 75 141
72 76 111
72 77 222
72 78 80
72 79 47
72 80 116
72 81 197
72 82 191
72 83 152
72 84 130
72 85 58
72 86 84
72 87 160
72 88 135
72 89 233
72 90 75
73 74 160
73 75 165
73 76 86
73 77 201
73 78 166
73 79 35
73 80 28
73 81 153
73 82 99
73 83 193
73 84 81
73 85 53
73 86 180
73 87 195
73 88 43
73 89 263
73 90 233
74 75 217
74 76 101
74 77 37
74 78 47
74 79 181
74 80 172
74 81 88
74 82 134
74 83 173
74 84 26
74 85 175
74 86 183
74 87 140
74 88 85
74 89 136
74 90 100
75 76 195
75 77 94
75 78 38
75 79 60
75 80 40
75 81 53
75 82 27
75 83 22
75 84 42
75 85 37
75 86 168
75 87 179
75 88 150
75 89 148
75 90 238
76 77 133
76 78 254
76 79 210
76 80 127
76 81 48
76 82 135
76 83 176
76 84 97
76 85 39
76 86 127
76 87 2
76 88 224
76 89 126
76 90 77
77 78 26
77 79 134
77 80 188
77 81 192
77 82 236
77 83 52
77 84 142
77 85 214
77 86 239
77 87 138
77 88 105
77 89 58
77 90 80
78 79 259
78 80 189
78 81 59
78 82 265
78 83 172
78 84 200
78 85 214
78 86 141
78 87 21
78 88 137
78 89 94
78 90 196
79 80 241
79 81 131
79 82 171
79 83 130
79 84 192
79 85 18
79 86 14
79 87 15
79 88 243
79 89 211
79 90 85
80 81 123
80 82 263
80 83 101
80 84 213
80 85 12
80 86 157
80 87 74
80 88 134
80 89 86
80 90 167
81 82 170
81 83 151
81 84 106
81 85 14
81 86 63
81 87 128
81 88 170
81 89 238
81 90 251
82 83 86
82 84 70
82 85 265
82 86 205
82 87 34
82 88 250
82 89 64
82 90 25
83 84 35
83 85 71
83 86 109
83 87 131
83 88 154
83 89 186
83 90 195
84 85 193
84 86 212
84 87 233
84 88 177
84 89 57
84 90 214
85 86 80
85 87 26
85 88 28
85 89 205
85 90 144
86 87 122
86 88 222
86 89 124
86 90 117
87 88 148
87 89 201
87 90 268
88 89 145
88 90 182
89 90 269
